32	0

0	1	2
8	1	3
10	2	4	7
3	2	5	9
2	1	6
2	1	8
6	1	8
10	1	10
6	1	10
8	1	11
1	1	12
3	1	13
3	1	14
10	3	15	16	19
6	2	17	18
6	2	17	18
7	1	20
7	1	20
10	1	20
7	1	21
3	1	22
3	1	23
4	1	24
4	1	25
6	1	26
4	2	27	28
6	1	29
10	1	29
10	1	30
3	1	31
9	1	32
0	0
